Data path: /scratch/opt/lxu/CFLG/benchmarks/tree_B
Instance: treeB.200.30
Result path: /scratch/opt/lxu/CFLG/results/tree_B
Solver: Gurobi
Time limit: 7200
Formulation: LEFPAV
Cover: Small
julia --project=. src/main.jl /scratch/opt/lxu/CFLG/benchmarks/tree_B treeB.200.30 /scratch/opt/lxu/CFLG/results/tree_B Gurobi 7200 LEFPAV Small
The latest version of Julia in the `release` channel is 1.11.5+0.x64.linux.gnu. You currently have `1.11.4+0.x64.linux.gnu` installed. Run:

  juliaup update

in your terminal shell to install Julia 1.11.5+0.x64.linux.gnu and update the `release` channel to that version.
/scratch/opt/lxu/CFLG/benchmarks/tree_B Gurobi 7200.0 /scratch/opt/lxu/CFLG/results/tree_B treeB.200.30 LEFPAV Small
/scratch/opt/lxu/CFLG/benchmarks/tree_B/treeB.200.30

 read graph
data loaded


after absorb:151 200

max_piece:22
problem_graph/original graph: node: 151/200 edge: 180/229 dlt: 0.3787818609107315 break_avg_len: 1.927578803301277 break_max_len: 8.273360924001528Vbar/V, Ebar/E(63, 151, 92, 180)
(1, 119)(4, 131)(4, 64)(9, 36)(10, 125)(10, 54)(15, 125)(15, 97)(15, 90)(16, 26)(16, 91)(18, 119)(18, 60)(18, 38)(18, 149)(4, 23)(23, 54)(24, 109)(26, 39)(3, 26)(31, 109)(31, 125)(31, 42)(31, 89)(32, 103)(9, 32)(33, 40)(33, 137)(22, 33)(34, 150)(4, 34)(36, 40)(36, 122)(38, 39)(38, 58)(39, 106)(39, 63)(46, 58)(46, 131)(46, 60)(48, 150)(48, 81)(10, 48)(41, 50)(34, 50)(50, 64)(50, 124)(47, 54)(52, 54)(54, 90)(52, 57)(58, 102)(63, 64)(52, 70)(70, 122)(42, 71)(63, 71)(71, 75)(23, 71)(64, 76)(63, 81)(24, 85)(41, 85)(38, 85)(32, 85)(57, 91)(4, 100)(102, 105)(47, 102)(102, 107)(89, 102)(97, 103)(70, 105)(3, 107)(106, 112)(40, 112)(52, 112)(100, 113)(36, 113)(113, 137)(40, 119)(76, 124)(106, 125)(26, 127)(127, 142)(75, 137)(76, 142)(64, 142)(107, 147)(22, 147)(1, 149)(64, 150)(Dict(35 => 1.0, 58 => 7.0, 52 => 2.0, 60 => 7.0, 24 => 11.0, 28 => 3.0, 8 => 1.0, 1 => 4.0, 19 => 2.0, 22 => 2.0, 47 => 2.0, 6 => 4.0, 32 => 4.0, 41 => 2.0, 36 => 10.0, 43 => 12.0, 44 => 4.0, 49 => 3.0, 53 => 4.0, 3 => 4.0, 51 => 2.0, 61 => 4.0, 29 => 4.0, 33 => 11.0, 25 => 5.0, 40 => 15.0, 34 => 12.0, 4 => 4.0, 13 => 3.0, 21 => 3.0, 50 => 4.0, 54 => 2.0, 59 => 2.0, 26 => 12.0, 63 => 4.0, 2 => 9.0, 10 => 2.0, 15 => 7.0, 38 => 2.0, 62 => 2.0), [3, 4, 13, 19, 21, 24, 26, 29, 34, 36, 40, 47, 50, 51, 54, 59, 60, 61, 63, 1, 2, 6, 8, 10, 15, 22, 25, 28, 32, 33, 35, 38, 41, 43, 44, 49, 52, 53, 58, 62], 103, 132)Set parameter TokenServer to value "solice01.zib.de"
Set parameter Threads to value 1
Set parameter OutputFlag to value 1
Gurobi Optimizer version 12.0.1 build v12.0.1rc0 (linux64 - "Debian GNU/Linux 12 (bookworm)")

CPU model: Intel(R) Xeon(R) Gold 5122 CPU @ 3.60GHz, instruction set [SSE2|AVX|AVX2|AVX512]
Thread count: 8 physical cores, 16 logical processors, using up to 1 threads

Non-default parameters:
Threads  1

Optimize a model with 235 rows, 396 columns and 660 nonzeros
Model fingerprint: 0xea54dea4
Coefficient statistics:
  Matrix range     [1e+00, 1e+00]
  Objective range  [1e+00, 1e+00]
  Bounds range     [1e+00, 1e+00]
  RHS range        [1e+00, 1e+00]
Presolve removed 235 rows and 396 columns
Presolve time: 0.02s
Presolve: All rows and columns removed
Iteration    Objective       Primal Inf.    Dual Inf.      Time
       0    4.0000000e+01   0.000000e+00   0.000000e+00      0s

Solved in 0 iterations and 0.02 seconds (0.00 work units)
Optimal objective  4.000000000e+01

User-callback calls 35, time in user-callback 0.00 sec
elapsed CPU time: 1.744617 seconds
Set parameter TokenServer to value "solice01.zib.de"
Set parameter Threads to value 1
Set parameter OutputFlag to value 1
Set parameter MIPGap to value 0.0001
Set parameter MIPGapAbs to value 0.999998
Set parameter TimeLimit to value 7198.255383

 more cuts: false 0.3787818609107315 false
is_attach:trueformulation:LEFPAV0 132 0
Set parameter PreCrush to value 1

 model loaded

Gurobi Optimizer version 12.0.1 build v12.0.1rc0 (linux64 - "Debian GNU/Linux 12 (bookworm)")

CPU model: Intel(R) Xeon(R) Gold 5122 CPU @ 3.60GHz, instruction set [SSE2|AVX|AVX2|AVX512]
Thread count: 8 physical cores, 16 logical processors, using up to 1 threads

Non-default parameters:
TimeLimit  7198.255383
MIPGapAbs  0.999998
PreCrush  1
Threads  1

Optimize a model with 1578 rows, 1199 columns and 3829 nonzeros
Model fingerprint: 0x9f1b14f0
Variable types: 367 continuous, 832 integer (832 binary)
Coefficient statistics:
  Matrix range     [2e-02, 9e+00]
  Objective range  [1e+00, 1e+00]
  Bounds range     [2e-02, 8e+00]
  RHS range        [1e-06, 9e+00]
Presolve removed 1578 rows and 1199 columns
Presolve time: 0.00s
Presolve: All rows and columns removed

Explored 0 nodes (0 simplex iterations) in 0.00 seconds (0.00 work units)
Thread count was 1 (of 16 available processors)

Solution count 2: 308 308 

Optimal solution found (tolerance 1.00e-04)
Best objective 3.080000000000e+02, best bound 3.080000000000e+02, gap 0.0000%

User-callback calls 459, time in user-callback 0.85 sec

 sepatime0 460 0
308.0Stat(MathOptInterface.OPTIMAL, 308.0, 308.0, 0.0, 0.0, 1.744617, 0.003432035446166992, 0, Main.CFLG.LEFPAV, "", #undef)
